%%% static parameters %%%
timespan = 1;
initial_fruit_bushes = [40];
initial_foragers = [40];
ticks_to_flee = [100];
bush_growth_chance = [10];
rate_of_mutation = [5.0];
%%% dynamic parameters %%%
mean_strength_th = 0.03033320921023408;
mean_strength_w = 54;
mean_speed_th = 0.10786457158194362;
mean_speed_w = 20;
mean_intelligence_th = 0.15467238044502263;
mean_intelligence_w = 53;
murder_rate_th = 0.08539100151386048;
murder_rate_w = 3;
age_death_rate_th = 0.6359747615705799;
age_death_rate_w = 96;
starvation_rate_th = 0.5924569967510148;
starvation_rate_w = 91;
mean_reactive_aggression_th = 0.6617528413180069;
mean_reactive_aggression_w = 84;
mean_proactive_aggression_th = 0.13337251854498877;
mean_proactive_aggression_w = 64;
average_population_th = 427;
average_population_w = 244;
